c colouring generated by benchmark framework
p edge 676 1300
v 1 0
v 2 2
v 3 3
v 4 0
v 5 3
v 6 2
v 7 3
v 8 0
v 9 1
v 10 2
v 11 1
v 12 2
v 13 0
v 14 1
v 15 0
v 16 2
v 17 1
v 18 0
v 19 2
v 20 0
v 21 1
v 22 0
v 23 3
v 24 2
v 25 0
v 26 3
v 27 1
v 28 0
v 29 1
v 30 2
v 31 1
v 32 0
v 33 1
v 34 2
v 35 3
v 36 0
v 37 2
v 38 0
v 39 2
v 40 0
v 41 3
v 42 1
v 43 0
v 44 3
v 45 1
v 46 2
v 47 0
v 48 3
v 49 1
v 50 0
v 51 1
v 52 2
v 53 0
v 54 2
v 55 0
v 56 1
v 57 0
v 58 3
v 59 0
v 60 1
v 61 0
v 62 3
v 63 1
v 64 2
v 65 1
v 66 2
v 67 0
v 68 3
v 69 1
v 70 0
v 71 3
v 72 0
v 73 1
v 74 0
v 75 3
v 76 1
v 77 2
v 78 1
v 79 1
v 80 0
v 81 3
v 82 2
v 83 3
v 84 1
v 85 2
v 86 3
v 87 1
v 88 2
v 89 0
v 90 3
v 91 2
v 92 0
v 93 1
v 94 2
v 95 0
v 96 1
v 97 2
v 98 1
v 99 0
v 100 2
v 101 1
v 102 2
v 103 0
v 104 3
v 105 0
v 106 1
v 107 0
v 108 1
v 109 2
v 110 0
v 111 1
v 112 0
v 113 3
v 114 0
v 115 1
v 116 0
v 117 1
v 118 3
v 119 2
v 120 3
v 121 1
v 122 0
v 123 1
v 124 0
v 125 1
v 126 0
v 127 3
v 128 0
v 129 1
v 130 0
v 131 2
v 132 0
v 133 2
v 134 3
v 135 0
v 136 3
v 137 0
v 138 3
v 139 0
v 140 3
v 141 0
v 142 2
v 143 0
v 144 1
v 145 3
v 146 1
v 147 0
v 148 1
v 149 2
v 150 3
v 151 0
v 152 3
v 153 0
v 154 2
v 155 0
v 156 1
v 157 0
v 158 3
v 159 1
v 160 0
v 161 3
v 162 0
v 163 2
v 164 0
v 165 1
v 166 0
v 167 1
v 168 0
v 169 1
v 170 0
v 171 2
v 172 0
v 173 1
v 174 2
v 175 3
v 176 2
v 177 1
v 178 0
v 179 2
v 180 3
v 181 1
v 182 3
v 183 2
v 184 0
v 185 3
v 186 1
v 187 0
v 188 1
v 189 0
v 190 1
v 191 0
v 192 1
v 193 0
v 194 2
v 195 0
v 196 1
v 197 0
v 198 1
v 199 3
v 200 0
v 201 1
v 202 0
v 203 2
v 204 1
v 205 0
v 206 1
v 207 3
v 208 0
v 209 1
v 210 2
v 211 0
v 212 2
v 213 1
v 214 0
v 215 2
v 216 3
v 217 2
v 218 3
v 219 1
v 220 0
v 221 2
v 222 0
v 223 1
v 224 0
v 225 1
v 226 2
v 227 0
v 228 1
v 229 0
v 230 2
v 231 1
v 232 0
v 233 1
v 234 2
v 235 0
v 236 3
v 237 1
v 238 3
v 239 0
v 240 3
v 241 1
v 242 0
v 243 3
v 244 0
v 245 2
v 246 3
v 247 1
v 248 2
v 249 0
v 250 3
v 251 0
v 252 3
v 253 1
v 254 0
v 255 2
v 256 0
v 257 3
v 258 1
v 259 2
v 260 0
v 261 3
v 262 1
v 263 0
v 264 1
v 265 2
v 266 0
v 267 3
v 268 2
v 269 0
v 270 1
v 271 0
v 272 2
v 273 3
v 274 1
v 275 2
v 276 0
v 277 1
v 278 0
v 279 3
v 280 1
v 281 3
v 282 2
v 283 1
v 284 3
v 285 1
v 286 3
v 287 0
v 288 3
v 289 1
v 290 2
v 291 0
v 292 3
v 293 1
v 294 0
v 295 1
v 296 0
v 297 1
v 298 3
v 299 1
v 300 0
v 301 1
v 302 3
v 303 2
v 304 1
v 305 0
v 306 3
v 307 1
v 308 3
v 309 0
v 310 2
v 311 0
v 312 1
v 313 1
v 314 0
v 315 3
v 316 0
v 317 3
v 318 2
v 319 0
v 320 1
v 321 3
v 322 2
v 323 0
v 324 2
v 325 0
v 326 1
v 327 0
v 328 2
v 329 0
v 330 3
v 331 1
v 332 2
v 333 0
v 334 1
v 335 2
v 336 1
v 337 3
v 338 0
v 339 0
v 340 2
v 341 0
v 342 1
v 343 0
v 344 1
v 345 2
v 346 0
v 347 1
v 348 3
v 349 2
v 350 3
v 351 2
v 352 0
v 353 2
v 354 0
v 355 2
v 356 1
v 357 0
v 358 3
v 359 1
v 360 3
v 361 0
v 362 3
v 363 0
v 364 1
v 365 1
v 366 3
v 367 2
v 368 3
v 369 1
v 370 0
v 371 3
v 372 2
v 373 3
v 374 0
v 375 3
v 376 2
v 377 0
v 378 2
v 379 1
v 380 2
v 381 1
v 382 0
v 383 3
v 384 0
v 385 2
v 386 0
v 387 3
v 388 2
v 389 1
v 390 3
v 391 0
v 392 2
v 393 3
v 394 1
v 395 0
v 396 1
v 397 0
v 398 3
v 399 0
v 400 2
v 401 1
v 402 0
v 403 2
v 404 0
v 405 3
v 406 0
v 407 3
v 408 1
v 409 0
v 410 2
v 411 0
v 412 3
v 413 2
v 414 0
v 415 2
v 416 0
v 417 2
v 418 0
v 419 1
v 420 0
v 421 2
v 422 0
v 423 2
v 424 0
v 425 2
v 426 1
v 427 2
v 428 3
v 429 0
v 430 1
v 431 0
v 432 3
v 433 0
v 434 2
v 435 1
v 436 0
v 437 3
v 438 0
v 439 1
v 440 2
v 441 0
v 442 1
v 443 0
v 444 3
v 445 0
v 446 1
v 447 0
v 448 1
v 449 0
v 450 2
v 451 1
v 452 3
v 453 0
v 454 1
v 455 3
v 456 0
v 457 1
v 458 0
v 459 2
v 460 0
v 461 3
v 462 1
v 463 2
v 464 1
v 465 2
v 466 0
v 467 3
v 468 2
v 469 2
v 470 0
v 471 3
v 472 0
v 473 3
v 474 0
v 475 1
v 476 0
v 477 2
v 478 1
v 479 2
v 480 3
v 481 0
v 482 1
v 483 3
v 484 2
v 485 0
v 486 1
v 487 2
v 488 3
v 489 0
v 490 3
v 491 0
v 492 2
v 493 1
v 494 0
v 495 0
v 496 1
v 497 2
v 498 1
v 499 2
v 500 1
v 501 3
v 502 2
v 503 3
v 504 2
v 505 0
v 506 1
v 507 2
v 508 0
v 509 1
v 510 0
v 511 3
v 512 2
v 513 3
v 514 0
v 515 3
v 516 0
v 517 2
v 518 3
v 519 2
v 520 1
v 521 3
v 522 0
v 523 1
v 524 3
v 525 0
v 526 3
v 527 2
v 528 1
v 529 2
v 530 3
v 531 1
v 532 3
v 533 0
v 534 1
v 535 2
v 536 3
v 537 1
v 538 3
v 539 2
v 540 3
v 541 0
v 542 1
v 543 3
v 544 2
v 545 1
v 546 0
v 547 0
v 548 3
v 549 0
v 550 1
v 551 2
v 552 0
v 553 1
v 554 3
v 555 0
v 556 2
v 557 0
v 558 2
v 559 1
v 560 2
v 561 0
v 562 1
v 563 0
v 564 2
v 565 0
v 566 1
v 567 3
v 568 2
v 569 0
v 570 1
v 571 0
v 572 2
v 573 3
v 574 0
v 575 2
v 576 3
v 577 0
v 578 3
v 579 0
v 580 1
v 581 2
v 582 0
v 583 1
v 584 0
v 585 3
v 586 0
v 587 1
v 588 3
v 589 1
v 590 0
v 591 2
v 592 0
v 593 2
v 594 1
v 595 2
v 596 3
v 597 1
v 598 3
v 599 1
v 600 2
v 601 0
v 602 1
v 603 3
v 604 0
v 605 2
v 606 0
v 607 1
v 608 3
v 609 2
v 610 3
v 611 1
v 612 2
v 613 0
v 614 1
v 615 0
v 616 2
v 617 1
v 618 2
v 619 1
v 620 0
v 621 1
v 622 2
v 623 0
v 624 1
v 625 0
v 626 1
v 627 2
v 628 0
v 629 1
v 630 3
v 631 0
v 632 2
v 633 3
v 634 0
v 635 1
v 636 0
v 637 3
v 638 0
v 639 2
v 640 0
v 641 2
v 642 1
v 643 0
v 644 3
v 645 0
v 646 1
v 647 3
v 648 0
v 649 2
v 650 3
v 651 1
v 652 3
v 653 0
v 654 1
v 655 2
v 656 0
v 657 1
v 658 0
v 659 2
v 660 3
v 661 0
v 662 3
v 663 1
v 664 2
v 665 0
v 666 2
v 667 0
v 668 2
v 669 1
v 670 0
v 671 1
v 672 3
v 673 0
v 674 2
v 675 3
v 676 1
